language Essence 1.3

letting class be function(1 --> 2, 2 --> 2, 3 --> 2, 4 --> 2, 5 --> 2, 6 --> 1, 7 --> 2, 8 --> 1)
letting deck_length be 78
letting deck_width be 78
letting length be function(1 --> 2, 2 --> 8, 3 --> 6, 4 --> 7, 5 --> 45, 6 --> 1, 7 --> 3, 8 --> 27)
letting n_classes be 2
letting n_containers be 8
letting separation be function()
letting width be function(1 --> 3, 2 --> 46, 3 --> 7, 4 --> 31, 5 --> 49, 6 --> 25, 7 --> 22, 8 --> 67)
